db/data/2844609793661089631412309112732712400.z3.out
sat
-------------------
24.699615244
